
******************************************************************************
This program contains Ipopt, a library for large-scale nonlinear optimization.
 Ipopt is released as open source code under the Eclipse Public License (EPL).
         For more information visit http://projects.coin-or.org/Ipopt
******************************************************************************

This is Ipopt version 3.12.6, running with linear solver ma57.

Number of nonzeros in equality constraint Jacobian...:        3
Number of nonzeros in inequality constraint Jacobian.:        0
Number of nonzeros in Lagrangian Hessian.............:        5

Total number of variables............................:        3
                     variables with only lower bounds:        0
                variables with lower and upper bounds:        0
                     variables with only upper bounds:        0
Total number of equality constraints.................:        1
Total number of inequality constraints...............:        0
        inequality constraints with only lower bounds:        0
   inequality constraints with lower and upper bounds:        0
        inequality constraints with only upper bounds:        0

iter    objective    inf_pr   inf_du lg(mu)  ||d||  lg(rg) alpha_du alpha_pr  ls
   0  1.3000000e+01 0.00e+00 6.14e+00  -1.0 0.00e+00    -  0.00e+00 0.00e+00   0
   1  6.5327544e-31 4.44e-16 8.88e-16  -1.0 4.50e+00    -  1.00e+00 1.00e+00f  1

Number of Iterations....: 1

                                   (scaled)                 (unscaled)
Objective...............:   6.5327543713615040e-31    6.5327543713615040e-31
Dual infeasibility......:   8.8817841970012523e-16    8.8817841970012523e-16
Constraint violation....:   4.4408920985006262e-16    4.4408920985006262e-16
Complementarity.........:   0.0000000000000000e+00    0.0000000000000000e+00
Overall NLP error.......:   8.8817841970012523e-16    8.8817841970012523e-16


Number of objective function evaluations             = 2
Number of objective gradient evaluations             = 2
Number of equality constraint evaluations            = 2
Number of inequality constraint evaluations          = 0
Number of equality constraint Jacobian evaluations   = 2
Number of inequality constraint Jacobian evaluations = 0
Number of Lagrangian Hessian evaluations             = 1
Total CPU secs in IPOPT (w/o function evaluations)   =      0.000
Total CPU secs in NLP function evaluations           =      0.000

EXIT: Optimal Solution Found.

************************ CUTEst statistics ************************


 Package used            :  IPOPT
 Problem                 :  HS28      
 # variables             =               3
 # constraints           =               1
 # objective functions   =        0.5000000E+01
 # objective gradients   =        0.3000000E+01
 # objective Hessians    =        0.2000000E+01
 # Hessian-vector prdct  =        0.0000000E+00
 # constraints functions =        0.6000000E+01
 # constraints gradients =        0.4000000E+01
 # constraints Hessians  =        0.2000000E+01
 Exit code               =               0
 Final f                 =   0.6532754E-30
 Set up time             =            0.00 seconds
 Solve time              =            0.01 seconds


******************************************************************

System Time =       0.0010000000 s.
